INPUT_PARAMETERS
# Parameters (General)
suffix    ABACUS
ntype    2
pseudo_dir    /home/lijh/abacus/selected-Dojo/Pseudopotential/
orbital_dir    /home/lijh/abacus/selected-Dojo/selected_Orbs/
nspin    1
symmetry    1
esolver_type    ksdft
ks_solver    genelpa

# Parameters (Methods)
calculation    relax
basis_type    lcao
ecutwfc    100
scf_thr    1e-07
scf_nmax    300
relax_method    cg
relax_nmax    200
force_thr_ev    0.001
stress_thr    0.5
dft_functional    PBESOL

# Parameters (File)
cal_force    1
cal_stress    1

# Parameters (Other setting)
kspacing    0.1
smearing_method    gaussian
smearing_sigma    0.01
mixing_beta    0.5
