Hf2 O4 
1.0
3.5488465601335699e+00 0.0000000000000000e+00 0.0000000000000000e+00 
1.0952010802418558e-15 3.5488465601398418e+00 0.0000000000000000e+00 
5.2483090245194405e-12 -7.0298258609881212e-12 5.1732830798085176e+00 
Hf O 
2 4 
Cartesian
   1.7744232801    1.7744232801    2.5866415399
   3.5488465601    0.0000000001    0.0000000000
   1.7744232801   -0.0000000000    1.5554303305
   3.5488465601    1.7744232801    1.0312112094
   0.0000000000    1.7744232801    3.6178527493
   1.7744232801    3.5488465601    4.1420718704
