clear
units    metal
dimension    3
boundary    p p p
box    tilt large

read_data    conf.lmp

neigh_modify    every 1 delay 0 check no

pair_style    deepmd    graph.pb
pair_coeff * *

compute    mype all pe
thermo    100
thermo_style    custom step pe pxx pyy pzz pxy pxz pyz lx ly lz vol c_mype
dump    1 all custom 100 dump.relax id type xs ys zs fx fy fz
write_data    CONTCAR.lmp

run    0

variable    V equal vol
variable    E equal "c_mype"
variable    Pxx equal pxx
variable    Pyy equal pyy
variable    Pzz equal pzz
variable    Pyz equal pyz
variable    Pxz equal pxz
variable    Pxy equal pxy

print "All done"
print "Final energy = ${E}"
print "Final Stress (xx yy zz yz xz xy) = ${Pxx} ${Pyy} ${Pzz} ${Pyz} ${Pxz} ${Pxy}"
