ATOMIC_SPECIES
Hf 178.4900 Hf.upf upf201
O  15.9990 O.upf upf201

NUMERICAL_ORBITAL
Hf_gga_7au_100Ry_4s2p2d1f.orb
O_gga_7au_100Ry_2s2p1d.orb

LATTICE_CONSTANT
1.8897260000

LATTICE_VECTORS
        5.0855680815        0.0000000000        0.0009359139
        0.0000000000        5.1563937634        0.0000000000
       -0.8478815933        0.0000000000        5.1740226769

ATOMIC_POSITIONS
Direct

Hf #label
0.0000   #magnetism
4 #number of atoms
        0.2761943737        0.0411185252        0.2086274523 m 1 1 1
        0.7238056263        0.9588814748        0.7913725477 m 1 1 1
        0.7238056263        0.5411185252        0.2913725477 m 1 1 1
        0.2761943737        0.4588814748        0.7086274523 m 1 1 1

O #label
0.0000   #magnetism
8 #number of atoms
        0.0732026976        0.1612076853        0.8411656346 m 1 1 1
        0.9267973024        0.8387923147        0.1588343654 m 1 1 1
        0.9267973024        0.6612076853        0.6588343654 m 1 1 1
        0.0732026976        0.3387923147        0.3411656346 m 1 1 1
        0.4490036281        0.7418263684        0.9795943964 m 1 1 1
        0.5509963719        0.2581736316        0.0204056036 m 1 1 1
        0.5509963719        0.2418263684        0.5204056036 m 1 1 1
        0.4490036281        0.7581736316        0.4795943964 m 1 1 1
