ATOMIC_SPECIES
Hf 178.4900 Hf.upf upf201
O  15.9990 O.upf upf201

NUMERICAL_ORBITAL
Hf_gga_7au_100Ry_4s2p2d1f.orb
O_gga_7au_100Ry_2s2p1d.orb

LATTICE_CONSTANT
1.889726

LATTICE_VECTORS
5.027846090000  0.000000000000  0.000000000000
0.000000000000  5.027846090000  0.000000000000
0.000000000000  0.000000000000  5.137048230000

ATOMIC_POSITIONS
Direct

Hf
0.000
4
0.000000000000  0.000000000000  0.000000000000  1  1  1  mag  0.0
0.500000000000  0.500000000000  0.000000000000  1  1  1  mag  0.0
0.500000000000  0.000000000000  0.500000000000  1  1  1  mag  0.0
0.000000000000  0.500000000000  0.500000000000  1  1  1  mag  0.0

O 
0.000
8
0.250000000000  0.750000000000  0.297986310000  1  1  1  mag  0.0
0.750000000000  0.250000000000  0.297986310000  1  1  1  mag  0.0
0.250000000000  0.750000000000  0.797986310000  1  1  1  mag  0.0
0.750000000000  0.250000000000  0.797986310000  1  1  1  mag  0.0
0.250000000000  0.250000000000  0.202013690000  1  1  1  mag  0.0
0.750000000000  0.750000000000  0.202013690000  1  1  1  mag  0.0
0.250000000000  0.250000000000  0.702013690000  1  1  1  mag  0.0
0.750000000000  0.750000000000  0.702013690000  1  1  1  mag  0.0
