ATOMIC_SPECIES
Hf 178.4900 Hf.upf upf201
O  15.9990 O.upf upf201

NUMERICAL_ORBITAL
Hf_gga_7au_100Ry_4s2p2d1f.orb
O_gga_7au_100Ry_2s2p1d.orb

LATTICE_CONSTANT
1.8897260000

LATTICE_VECTORS
        5.0278460900        0.0000000000        0.0000000000
        0.0000000000        5.0278460900        0.0000000000
        0.0000000000        0.0000000000        5.1884187123

ATOMIC_POSITIONS
Direct

Hf #label
0.0000   #magnetism
4 #number of atoms
        0.0000000000        0.0000000000        0.0000000000 m 1 1 1
        0.5000000000        0.5000000000        0.0000000000 m 1 1 1
        0.5000000000        0.0000000000        0.5000000000 m 1 1 1
        0.0000000000        0.5000000000        0.5000000000 m 1 1 1

O #label
0.0000   #magnetism
8 #number of atoms
        0.2500000000        0.7500000000        0.3008514465 m 1 1 1
        0.7500000000        0.2500000000        0.3008514465 m 1 1 1
        0.2500000000        0.7500000000        0.8008514465 m 1 1 1
        0.7500000000        0.2500000000        0.8008514465 m 1 1 1
        0.2500000000        0.2500000000        0.1991485535 m 1 1 1
        0.7500000000        0.7500000000        0.1991485535 m 1 1 1
        0.2500000000        0.2500000000        0.6991485535 m 1 1 1
        0.7500000000        0.7500000000        0.6991485535 m 1 1 1
