ATOMIC_SPECIES
Hf 178.4900 Hf.upf upf201
O  15.9990 O.upf upf201

NUMERICAL_ORBITAL
Hf_gga_7au_100Ry_4s2p2d1f.orb
O_gga_7au_100Ry_2s2p1d.orb

LATTICE_CONSTANT
1.8897260000

LATTICE_VECTORS
        5.0278460900        0.0000000000        0.0000000000
        0.0000000000        5.0278460900        0.0000000000
        0.0256852412        0.0000000000        5.1370482300

ATOMIC_POSITIONS
Direct

Hf #label
0.0000   #magnetism
4 #number of atoms
        0.0000000000        0.0009074525        0.0000000000 m 1 1 1
        0.5000000000        0.5009074525        0.0000000000 m 1 1 1
        0.5000000000        0.9990925475        0.5000000000 m 1 1 1
        0.0000000000        0.4990925475        0.5000000000 m 1 1 1

O #label
0.0000   #magnetism
8 #number of atoms
        0.2499996028        0.7500753317        0.2979813100 m 1 1 1
        0.7499996028        0.2500753317        0.2979813100 m 1 1 1
        0.2499996028        0.7499246683        0.7979813100 m 1 1 1
        0.7499996028        0.2499246683        0.7979813100 m 1 1 1
        0.2500003972        0.2499246683        0.2020186900 m 1 1 1
        0.7500003972        0.7499246683        0.2020186900 m 1 1 1
        0.2500003972        0.2500753317        0.7020186900 m 1 1 1
        0.7500003972        0.7500753317        0.7020186900 m 1 1 1
