ATOMIC_SPECIES
Hf 178.4900 Hf.upf
O 15.9990 O.upf

NUMERICAL_ORBITAL
Hf_gga_7au_100Ry_4s2p2d1f.orb
O_gga_7au_100Ry_2s2p1d.orb

LATTICE_CONSTANT
1.8897260000

LATTICE_VECTORS
    5.0278460900    0.0000000000    0.0000000000
    0.0000000000    5.0529853204    0.0000000000
    0.0000000000    0.0000000000    5.1370482300

ATOMIC_POSITIONS
Direct

Hf
0.0
4
    0.0000000000    0.0000000000    0.0000000000 m 1 1 1
    0.5000000000    0.5000000000    0.0000000000 m 1 1 1
    0.5000000000    0.0000000000    0.5000000000 m 1 1 1
    0.0000000000    0.5000000000    0.5000000000 m 1 1 1

O
0.0
8
    0.2500000000    0.7500000000    0.2979863100 m 1 1 1
    0.7500000000    0.2500000000    0.2979863100 m 1 1 1
    0.2500000000    0.7500000000    0.7979863100 m 1 1 1
    0.7500000000    0.2500000000    0.7979863100 m 1 1 1
    0.2500000000    0.2500000000    0.2020136900 m 1 1 1
    0.7500000000    0.7500000000    0.2020136900 m 1 1 1
    0.2500000000    0.2500000000    0.7020136900 m 1 1 1
    0.7500000000    0.7500000000    0.7020136900 m 1 1 1

